Version identifier: 20.1.0.0 | 2020-11-10 | 9bedb6d68
CPXPARAM_Threads                                 1
CPXPARAM_TimeLimit                               7200
CPXPARAM_MIP_Tolerances_MIPGap                   0
Generic callback                                 0x60
1 of 1 MIP starts provided solutions.
MIP start 'm1' defined initial solution with objective 1757.0451.
Tried aggregator 1 time.
Reduced MIP has 1 rows, 501 columns, and 500 nonzeros.
Reduced MIP has 500 binaries, 0 generals, 0 SOSs, and 0 indicators.
Presolve time = 0.00 sec. (0.15 ticks)
Probing time = 0.00 sec. (0.05 ticks)
Tried aggregator 1 time.
Reduced MIP has 1 rows, 501 columns, and 500 nonzeros.
Reduced MIP has 500 binaries, 0 generals, 0 SOSs, and 0 indicators.
Presolve time = 0.00 sec. (0.15 ticks)
Probing time = 0.00 sec. (0.05 ticks)
MIP emphasis: balance optimality and feasibility.
MIP search method: dynamic search.
Parallel mode: none, using 1 thread.
Root relaxation solution time = 0.00 sec. (0.10 ticks)

        Nodes                                         Cuts/
   Node  Left     Objective  IInf  Best Integer    Best Bound    ItCnt     Gap

*     0+    0                         1757.0451     5432.0000           209.16%
      0     0     2233.4669     2     1757.0451     5432.0000        0  209.16%
      0     0     2130.0742     4     1757.0451 UserPurge2: 1        9   21.23%
      0     0     1994.5441     4     1757.0451 UserPurge2: 1       26   13.52%
      0     0     1930.6265     4     1757.0451 UserPurge2: 1       49    9.88%
      0     0     1917.0384     3     1757.0451 UserPurge2: 1       55    9.11%
      0     0     1908.6713     5     1757.0451 UserPurge2: 1       63    8.63%
      0     0     1876.4287     4     1757.0451 UserPurge2: 1       76    6.79%
      0     0     1873.8376     5     1757.0451 UserPurge2: 1       81    6.65%
      0     0     1858.2798     5     1757.0451 UserPurge2: 1       89    5.76%

Repeating presolve.
Tried aggregator 1 time.
MIP Presolve eliminated 0 rows and 135 columns.
Reduced MIP has 1 rows, 366 columns, and 365 nonzeros.
Reduced MIP has 365 binaries, 0 generals, 0 SOSs, and 0 indicators.
Presolve time = 0.00 sec. (0.14 ticks)
Probing time = 0.00 sec. (0.04 ticks)
Tried aggregator 1 time.
Reduced MIP has 1 rows, 366 columns, and 365 nonzeros.
Reduced MIP has 365 binaries, 0 generals, 0 SOSs, and 0 indicators.
Presolve time = 0.00 sec. (0.11 ticks)
Represolve time = 0.00 sec. (1.63 ticks)
Probing time = 0.00 sec. (0.04 ticks)
MIP emphasis: balance optimality and feasibility.
MIP search method: dynamic search.
Parallel mode: none, using 1 thread.
Root relaxation solution time = 0.00 sec. (0.82 ticks)

        Nodes                                         Cuts/
   Node  Left     Objective  IInf  Best Integer    Best Bound    ItCnt     Gap

*     0+    0                         1757.0451     1858.2798             5.76%
      0     0     1858.2798     5     1757.0451     1858.2798      115    5.76%
      0     0     1851.0905     6     1757.0451 UserPurge2: 1      126    5.35%
      0     0     1838.6949     5     1757.0451 UserPurge2: 1      137    4.65%
      0     2     1838.6949     5     1757.0451     1838.3981      137    4.63%
Elapsed time = 13.49 sec. (18.82 ticks, tree = 0.01 MB, solutions = 1)
      2     2     1783.6653     4     1757.0451     1783.6399     2023    1.51%
      5     3     1782.5296     8     1757.0451     1782.8179     2856    1.47%
      6     4     1780.3162     9     1757.0451     1782.8179     3522    1.47%
*    10+    3                         1760.1184     1782.8179             1.29%
     13     5     1760.9966     3     1760.1184     1780.3160     3745    1.15%
*    17     2      integral     0     1760.4180     1780.3160     3752    1.13%
     18     3     1779.4700     8     1760.4180     1780.2173     4045    1.12%
     19     4     1777.8278     9     1760.4180     1780.2173     4837    1.12%
     20     5     1777.4720     8     1760.4180     1780.2173     5251    1.12%
     21     6     1777.3392     8     1760.4180     1780.2173     5565    1.12%
     22     7     1776.7015    12     1760.4180     1780.2173     6086    1.12%
     24     9     1775.5934    13     1760.4180     1780.2173     7022    1.12%
Elapsed time = 597.70 sec. (5441.28 ticks, tree = 0.10 MB, solutions = 3)
     26    11     1772.9452    10     1760.4180     1780.2173     8164    1.12%
     27    12     1772.6035    13     1760.4180     1780.2173     8770    1.12%
     28    13     1771.3135    13     1760.4180     1780.2173     9802    1.12%
     29    14     1770.9502    16     1760.4180     1780.2173    10518    1.12%
     30    15     1770.0931    15     1760.4180     1780.2173    11783    1.12%
     31    16     1769.8747    15     1760.4180     1780.2173    12801    1.12%
     32    17     1769.0463    10     1760.4180     1780.2173    14181    1.12%
     33    18     1768.7469    16     1760.4180     1780.2173    14882    1.12%
     34    19     1768.5275    13     1760.4180     1780.2173    15381    1.12%
     35    20     1767.8616    16     1760.4180     1780.2173    16300    1.12%
Elapsed time = 1114.32 sec. (28905.82 ticks, tree = 0.41 MB, solutions = 3)
     36    21     1767.7167    17     1760.4180     1780.2173    16888    1.12%
     37    22     1767.6275    15     1760.4180     1780.2173    17436    1.12%
     38    23     1766.9366    13     1760.4180     1780.2173    18269    1.12%
     39    24     1766.3201    15     1760.4180     1780.2173    18872    1.12%
     40    25     1765.8163    19     1760.4180     1780.2173    19536    1.12%
     41    26     1765.5997    12     1760.4180     1780.2173    20101    1.12%
     42    27     1765.1061    13     1760.4180     1780.2173    20847    1.12%
     43    28     1765.0210    13     1760.4180     1780.2173    21458    1.12%
     44    29     1764.8801    12     1760.4180     1780.2173    21995    1.12%
     45    30     1764.6310    15     1760.4180     1780.2173    22510    1.12%
Elapsed time = 1533.50 sec. (57113.94 ticks, tree = 0.93 MB, solutions = 3)
     46    31     1764.2162    10     1760.4180     1780.2173    22978    1.12%
     47    32     1763.3920    14     1760.4180     1780.2173    23823    1.12%
     48    33     1763.0404    14     1760.4180     1780.2173    24571    1.12%
     49    34     1762.7339    14     1760.4180     1780.2173    25180    1.12%
     50    35     1762.3994    10     1760.4180     1780.2173    25802    1.12%
     51    36     1761.7792    12     1760.4180     1780.2173    26346    1.12%
     52    35        cutoff           1760.4180     1780.2173    26743    1.12%
     58    29        cutoff           1760.4180     1776.6865    27042    0.92%
     62    25        cutoff           1760.4180     1772.9445    27304    0.71%
     74    13        cutoff           1760.4180     1766.9159    27951    0.37%
Elapsed time = 1857.44 sec. (90846.03 ticks, tree = 0.74 MB, solutions = 3)

User cuts applied:  9494

Root node processing (before b&c):
  Real time             =   13.50 sec. (28.79 ticks)
Sequential b&c:
  Real time             = 1845.84 sec. (91656.51 ticks)
                          ------------
Total (root+branch&cut) = 1859.35 sec. (91685.30 ticks)
@Parameters: 
is_S_cut                                true
is_add_all_yinF                         true
is_start_value                          true
is_usercut                              true
is_visualization                        false
uc_only_rootnode                        false

data                                    Qi
fn                                      data/Qi/instance_1000_500.csv
mode                                    NewSubmodular
solver                                  cplex

p                                       2
r                                       5

EPS                                     1.0e-06
EPS_vio                                 1.0e-04
beta                                    0.10
gap                                     0.00
nodelimit                               Inf
timelimit                               7200.00


@PrintInfos
ItCnt: 28378
Current gap: 0.00 %
Termination Status: OPTIMAL
Primal Status: FEASIBLE_POINT
Solve Time: 1859.35 sec
Objective Value: 1760.417999
Number of Nodes:     88

CutInfo: [phase] num / time (sec) 
ZLP             [phase1]     0 / 0.00 [rLC]     0 / 0.00 [rUC]     0 / 0.00 [sLC]     0 / 0.00 [sUC]     0 / 0.00 
OldSubmodular   [phase1]     0 / 0.00 [rLC]     0 / 0.00 [rUC]     0 / 0.00 [sLC]     0 / 0.00 [sUC]     0 / 0.00 
NewSubmodular   [phase1]     0 / 0.00 [rLC]    30 / 9.45 [rUC]    26 / 2.02 [sLC]     2 / 6.13 [sUC]  9479 / 1757.40 
PMP             [phase1]     0 / 0.00 [rLC]     4 / 6.54 [rUC]     0 / 0.00 [sLC]     4 / 5.98 [sUC]    89 / 184.00 
Separation Round: [phase1] 0  [rLC] 20  [rUC] 12  [sLC] 4  [sUC] 2123
Root Best Bound 1783.639930
Root Best Integer: 1757.045123
Best Bound: 1760.417999
Best Integer: 1760.417999

